\ LP format - for model browsing. Use MPS format to capture full model detail.
Minimize
  C0 + C1 + C2 + C3 + C4 + 0.0334614440798759 C5 + 0.4789336323738098 C6
   + 0.5918138027191162 C7 + 0.3085756599903107 C8 + 0.2814606428146362 C9
   + 0.3437566161155701 C10 + 0.9378010630607605 C11
   + 0.8166292905807495 C12 + 0.6497541666030884 C13
   + 0.5732493996620178 C14 + 0.4206855297088623 C15
   + 0.5040798187255859 C16 + 0.6038083434104919 C17
   + 0.3725313544273376 C18 + 0.7536540031433105 C19
   + 0.7033844590187073 C20 + 0.2255910634994507 C21
   + 0.145129531621933 C22 + 0.3457943201065063 C23
   + 0.5735658407211304 C24 + 0.6823676824569702 C25
   + 0.439052939414978 C26 + 0.0840101465582848 C27
   + 0.8337703943252563 C28 + 0.4258983135223389 C29
   + 0.7718064785003662 C30 + 0.1805250644683838 C31
   + 0.6680228114128113 C32 + 0.5457127690315247 C33
   + 0.9653834104537964 C34 + 0.6098224520683289 C35
   + 0.3937081694602966 C36 + 0.5928599834442139 C37
   + 0.4739899039268494 C38 + 0.5546788573265076 C39
   + 0.9141616821289062 C40 + 0.9307762980461121 C41
   + 0.4623308181762695 C42 + 0.1133495941758156 C43
   + 0.8963722586631775 C44 + 0.0857212990522385 C45
   + 0.676807165145874 C46 + 0.3465458750724792 C47 + 0.740044116973877 C48
   + 0.7855313420295715 C49 + 0.5351361036300659 C50
   + 0.3133321106433868 C51 + 0.788815438747406 C52 + 0.53105229139328 C53
   + 0.9643824696540833 C54
Subject To
 customer0: C5 + C15 + C25 + C35 + C45 = 1
 customer1: C6 + C16 + C26 + C36 + C46 = 1
 customer2: C7 + C17 + C27 + C37 + C47 = 1
 customer3: C8 + C18 + C28 + C38 + C48 = 1
 customer4: C9 + C19 + C29 + C39 + C49 = 1
 customer5: C10 + C20 + C30 + C40 + C50 = 1
 customer6: C11 + C21 + C31 + C41 + C51 = 1
 customer7: C12 + C22 + C32 + C42 + C52 = 1
 customer8: C13 + C23 + C33 + C43 + C53 = 1
 customer9: C14 + C24 + C34 + C44 + C54 = 1
 supply0,0: - C0 + C5 <= 0
 supply0,1: - C0 + C6 <= 0
 supply0,2: - C0 + C7 <= 0
 supply0,3: - C0 + C8 <= 0
 supply0,4: - C0 + C9 <= 0
 supply0,5: - C0 + C10 <= 0
 supply0,6: - C0 + C11 <= 0
 supply0,7: - C0 + C12 <= 0
 supply0,8: - C0 + C13 <= 0
 supply0,9: - C0 + C14 <= 0
 supply1,0: - C1 + C15 <= 0
 supply1,1: - C1 + C16 <= 0
 supply1,2: - C1 + C17 <= 0
 supply1,3: - C1 + C18 <= 0
 supply1,4: - C1 + C19 <= 0
 supply1,5: - C1 + C20 <= 0
 supply1,6: - C1 + C21 <= 0
 supply1,7: - C1 + C22 <= 0
 supply1,8: - C1 + C23 <= 0
 supply1,9: - C1 + C24 <= 0
 supply2,0: - C2 + C25 <= 0
 supply2,1: - C2 + C26 <= 0
 supply2,2: - C2 + C27 <= 0
 supply2,3: - C2 + C28 <= 0
 supply2,4: - C2 + C29 <= 0
 supply2,5: - C2 + C30 <= 0
 supply2,6: - C2 + C31 <= 0
 supply2,7: - C2 + C32 <= 0
 supply2,8: - C2 + C33 <= 0
 supply2,9: - C2 + C34 <= 0
 supply3,0: - C3 + C35 <= 0
 supply3,1: - C3 + C36 <= 0
 supply3,2: - C3 + C37 <= 0
 supply3,3: - C3 + C38 <= 0
 supply3,4: - C3 + C39 <= 0
 supply3,5: - C3 + C40 <= 0
 supply3,6: - C3 + C41 <= 0
 supply3,7: - C3 + C42 <= 0
 supply3,8: - C3 + C43 <= 0
 supply3,9: - C3 + C44 <= 0
 supply4,0: - C4 + C45 <= 0
 supply4,1: - C4 + C46 <= 0
 supply4,2: - C4 + C47 <= 0
 supply4,3: - C4 + C48 <= 0
 supply4,4: - C4 + C49 <= 0
 supply4,5: - C4 + C50 <= 0
 supply4,6: - C4 + C51 <= 0
 supply4,7: - C4 + C52 <= 0
 supply4,8: - C4 + C53 <= 0
 supply4,9: - C4 + C54 <= 0
Bounds
 C0 <= 1
 C1 <= 1
 C2 <= 1
 C3 <= 1
 C4 <= 1
 C5 <= 1
 C6 <= 1
 C7 <= 1
 C8 <= 1
 C9 <= 1
 C10 <= 1
 C11 <= 1
 C12 <= 1
 C13 <= 1
 C14 <= 1
 C15 <= 1
 C16 <= 1
 C17 <= 1
 C18 <= 1
 C19 <= 1
 C20 <= 1
 C21 <= 1
 C22 <= 1
 C23 <= 1
 C24 <= 1
 C25 <= 1
 C26 <= 1
 C27 <= 1
 C28 <= 1
 C29 <= 1
 C30 <= 1
 C31 <= 1
 C32 <= 1
 C33 <= 1
 C34 <= 1
 C35 <= 1
 C36 <= 1
 C37 <= 1
 C38 <= 1
 C39 <= 1
 C40 <= 1
 C41 <= 1
 C42 <= 1
 C43 <= 1
 C44 <= 1
 C45 <= 1
 C46 <= 1
 C47 <= 1
 C48 <= 1
 C49 <= 1
 C50 <= 1
 C51 <= 1
 C52 <= 1
 C53 <= 1
 C54 <= 1
End
